Geographic Exponential Decay
20 278 204 128 315 114 169 184 39 37 265 240 152 101 87 96 138 155 209 296 255
p edge 320 1257
e 0 121 2.0
e 0 228 1.0
e 1 26 2.0
e 1 11 5.0
e 2 85 2.0
e 2 125 3.0
e 2 41 16.0
e 3 310 3.0
e 3 247 2.0
e 3 229 1.0
e 3 243 11.0
e 3 263 10.0
e 4 60 1.0
e 4 183 2.0
e 5 242 9.0
e 5 198 4.0
e 6 301 12.0
e 6 266 3.0
e 6 65 7.0
e 6 63 1.0
e 6 75 6.0
e 7 11 5.0
e 7 105 1.0
e 8 104 8.0
e 8 235 1.0
e 9 135 2.0
e 9 233 10.0
e 9 118 4.0
e 10 308 2.0
e 10 204 16.0
e 11 273 1.0
e 12 35 1.0
e 12 153 2.0
e 13 128 47.0
e 13 237 1.0
e 14 57 2.0
e 14 291 2.0
e 15 162 1.0
e 15 191 1.0
e 16 233 1.0
e 16 157 1.0
e 16 197 4.0
e 17 87 14.0
e 17 113 1.0
e 17 210 1.0
e 18 42 1.0
e 18 182 5.0
e 18 273 3.0
e 19 34 1.0
e 19 130 8.0
e 20 47 20.0
e 20 64 9.0
e 20 164 19.0
e 20 24 8.0
e 20 249 9.0
e 20 129 5.0
e 20 190 22.0
e 20 302 8.0
e 20 111 14.0
e 20 304 16.0
e 21 228 1.0
e 21 201 6.0
e 22 217 2.0
e 22 216 1.0
e 23 194 10.0
e 23 276 8.0
e 23 85 12.0
e 23 15 1.0
e 23 87 23.0
e 24 270 3.0
e 24 240 42.0
e 25 290 1.0
e 25 113 2.0
e 26 125 1.0
e 26 185 4.0
e 27 222 2.0
e 27 55 3.0
e 28 211 6.0
e 28 250 3.0
e 29 32 2.0
e 29 150 1.0
e 30 185 1.0
e 30 277 1.0
e 31 177 1.0
e 31 226 2.0
e 32 51 1.0
e 33 235 2.0
e 33 74 1.0
e 34 211 4.0
e 35 265 1.0
e 36 219 1.0
e 36 49 1.0
e 37 124 49.0
e 37 258 6.0
e 37 290 24.0
e 37 313 4.0
e 37 19 47.0
e 37 202 67.0
e 37 150 95.0
e 37 157 51.0
e 37 269 78.0
e 37 189 58.0
e 37 39 47.0
e 37 267 56.0
e 37 213 17.0
e 37 208 46.0
e 37 220 50.0
e 37 118 46.0
e 37 132 20.0
e 37 52 13.0
e 37 259 65.0
e 37 151 5.0
e 37 4 35.0
e 37 33 16.0
e 37 305 94.0
e 37 7 54.0
e 37 108 42.0
e 37 212 42.0
e 37 0 15.0
e 37 63 56.0
e 37 249 95.0
e 37 244 57.0
e 37 268 51.0
e 37 276 54.0
e 37 261 99.0
e 37 125 97.0
e 37 60 34.0
e 37 5 23.0
e 37 184 50.0
e 38 44 2.0
e 38 245 1.0
e 39 252 64.0
e 39 285 53.0
e 39 31 29.0
e 39 228 36.0
e 39 261 98.0
e 39 200 86.0
e 39 88 11.0
e 39 175 51.0
e 39 166 3.0
e 39 27 100.0
e 39 7 32.0
e 39 82 62.0
e 39 146 23.0
e 39 272 83.0
e 39 257 38.0
e 39 14 36.0
e 39 223 86.0
e 39 212 74.0
e 39 181 15.0
e 39 222 58.0
e 39 133 69.0
e 39 86 76.0
e 39 110 33.0
e 39 32 84.0
e 39 314 57.0
e 39 50 63.0
e 39 235 20.0
e 39 143 82.0
e 39 284 67.0
e 39 58 25.0
e 39 10 51.0
e 39 316 73.0
e 39 167 15.0
e 39 92 77.0
e 39 119 21.0
e 39 33 100.0
e 40 43 1.0
e 40 35 1.0
e 41 82 4.0
e 41 302 25.0
e 41 60 2.0
e 41 23 20.0
e 41 267 2.0
e 41 44 9.0
e 41 306 4.0
e 41 224 1.0
e 41 18 24.0
e 42 9 4.0
e 42 102 9.0
e 43 223 1.0
e 45 106 1.0
e 45 7 2.0
e 46 108 2.0
e 46 109 1.0
e 47 167 10.0
e 48 276 3.0
e 48 121 2.0
e 49 284 1.0
e 50 124 1.0
e 51 14 2.0
e 51 187 4.0
e 52 97 5.0
e 52 20 2.0
e 53 168 6.0
e 53 297 3.0
e 53 265 64.0
e 53 313 2.0
e 53 203 4.0
e 54 301 3.0
e 54 50 1.0
e 55 8 2.0
e 55 187 3.0
e 55 221 30.0
e 55 166 3.0
e 55 130 11.0
e 55 9 10.0
e 55 200 18.0
e 55 28 18.0
e 55 286 18.0
e 56 7 2.0
e 56 103 1.0
e 57 309 2.0
e 58 248 1.0
e 59 147 3.0
e 59 213 1.0
e 61 144 1.0
e 61 122 1.0
e 62 109 1.0
e 62 208 1.0
e 63 160 7.0
e 63 65 2.0
e 63 126 8.0
e 64 269 3.0
e 64 103 4.0
e 65 166 1.0
e 65 41 3.0
e 65 98 1.0
e 66 70 1.0
e 66 286 3.0
e 67 232 1.0
e 67 27 1.0
e 68 224 1.0
e 68 202 1.0
e 69 165 9.0
e 69 104 10.0
e 69 232 16.0
e 69 289 16.0
e 69 211 18.0
e 69 203 9.0
e 69 100 19.0
e 69 261 23.0
e 69 233 8.0
e 69 161 6.0
e 70 262 5.0
e 71 72 4.0
e 71 257 11.0
e 71 302 1.0
e 71 169 75.0
e 71 254 5.0
e 72 65 11.0
e 73 236 3.0
e 73 14 1.0
e 74 193 3.0
e 75 313 1.0
e 76 238 7.0
e 76 102 35.0
e 76 268 9.0
e 77 141 1.0
e 77 180 1.0
e 78 57 1.0
e 78 269 1.0
e 79 162 2.0
e 79 261 2.0
e 80 109 1.0
e 80 44 2.0
e 81 265 56.0
e 81 264 3.0
e 81 110 5.0
e 83 58 1.0
e 83 142 10.0
e 83 136 5.0
e 84 185 1.0
e 84 272 2.0
e 85 189 4.0
e 86 135 1.0
e 87 61 66.0
e 87 90 9.0
e 87 217 85.0
e 87 22 93.0
e 87 246 32.0
e 87 226 80.0
e 87 131 67.0
e 87 183 57.0
e 87 4 22.0
e 87 164 67.0
e 87 277 91.0
e 87 287 9.0
e 87 116 20.0
e 87 70 72.0
e 87 137 58.0
e 87 28 23.0
e 87 305 24.0
e 87 278 35.0
e 87 67 97.0
e 87 121 4.0
e 87 113 26.0
e 87 53 96.0
e 87 229 35.0
e 87 281 15.0
e 87 312 90.0
e 87 302 64.0
e 87 42 19.0
e 87 267 93.0
e 87 244 40.0
e 87 300 35.0
e 87 213 85.0
e 87 245 26.0
e 87 73 68.0
e 87 78 64.0
e 87 279 43.0
e 88 76 1.0
e 89 301 8.0
e 89 110 4.0
e 89 191 21.0
e 89 95 23.0
e 89 70 15.0
e 89 251 23.0
e 89 192 1.0
e 89 79 6.0
e 89 207 6.0
e 89 4 12.0
e 90 189 4.0
e 90 172 11.0
e 91 291 1.0
e 91 245 4.0
e 91 5 6.0
e 91 78 9.0
e 91 22 5.0
e 92 315 71.0
e 93 115 14.0
e 93 101 85.0
e 93 33 1.0
e 93 18 7.0
e 93 123 4.0
e 94 89 22.0
e 94 135 1.0
e 95 3 11.0
e 95 195 4.0
e 96 242 30.0
e 96 124 14.0
e 96 253 58.0
e 96 251 82.0
e 96 29 85.0
e 96 1 64.0
e 96 126 30.0
e 96 6 23.0
e 96 164 34.0
e 96 166 39.0
e 96 88 88.0
e 96 295 25.0
e 96 26 71.0
e 96 240 60.0
e 96 250 35.0
e 96 136 97.0
e 96 177 25.0
e 96 272 45.0
e 96 148 34.0
e 96 174 19.0
e 96 55 20.0
e 96 51 22.0
e 96 41 48.0
e 96 300 33.0
e 96 127 42.0
e 96 245 59.0
e 96 230 78.0
e 96 40 27.0
e 96 298 52.0
e 96 143 46.0
e 96 195 7.0
e 96 135 100.0
e 96 168 1.0
e 96 9 32.0
e 96 90 87.0
e 96 256 42.0
e 96 202 99.0
e 97 157 1.0
e 98 126 1.0
e 99 216 7.0
e 99 255 25.0
e 99 297 2.0
e 99 39 66.0
e 99 186 11.0
e 100 145 1.0
e 101 51 71.0
e 101 260 49.0
e 101 99 38.0
e 101 228 82.0
e 101 31 50.0
e 101 30 61.0
e 101 50 71.0
e 101 74 89.0
e 101 96 6.0
e 101 253 65.0
e 101 45 86.0
e 101 151 91.0
e 101 179 60.0
e 101 29 33.0
e 101 61 89.0
e 101 79 36.0
e 101 80 81.0
e 101 203 96.0
e 101 175 98.0
e 101 285 66.0
e 101 52 24.0
e 101 14 44.0
e 101 313 71.0
e 101 109 100.0
e 101 88 30.0
e 101 255 19.0
e 101 2 26.0
e 101 172 16.0
e 101 297 20.0
e 101 318 9.0
e 101 81 3.0
e 101 36 35.0
e 101 183 49.0
e 101 312 53.0
e 101 298 55.0
e 101 32 75.0
e 102 298 9.0
e 102 164 20.0
e 102 78 47.0
e 102 1 30.0
e 102 131 33.0
e 102 284 30.0
e 102 15 35.0
e 102 207 31.0
e 102 236 22.0
e 102 152 94.0
e 102 230 45.0
e 102 295 43.0
e 102 82 50.0
e 102 182 43.0
e 102 54 15.0
e 102 135 33.0
e 102 228 35.0
e 103 85 1.0
e 104 227 12.0
e 104 132 7.0
e 104 15 10.0
e 105 282 4.0
e 105 40 7.0
e 105 217 6.0
e 105 158 8.0
e 106 54 1.0
e 107 271 2.0
e 107 129 15.0
e 107 245 2.0
e 111 114 99.0
e 112 179 2.0
e 112 245 1.0
e 114 181 23.0
e 114 262 14.0
e 114 112 48.0
e 114 244 13.0
e 114 288 55.0
e 114 150 66.0
e 114 86 27.0
e 114 84 19.0
e 114 184 25.0
e 114 85 99.0
e 114 278 83.0
e 114 56 69.0
e 114 318 84.0
e 114 153 66.0
e 114 161 35.0
e 114 279 71.0
e 114 83 91.0
e 114 273 12.0
e 114 33 76.0
e 114 166 40.0
e 114 156 98.0
e 114 123 77.0
e 114 185 17.0
e 114 177 23.0
e 114 95 41.0
e 114 100 66.0
e 114 236 24.0
e 114 48 75.0
e 114 293 47.0
e 114 66 28.0
e 114 152 64.0
e 114 67 90.0
e 114 11 24.0
e 114 171 47.0
e 114 87 14.0
e 114 167 8.0
e 115 178 18.0
e 115 37 63.0
e 115 238 10.0
e 115 312 1.0
e 115 74 20.0
e 115 149 5.0
e 115 177 17.0
e 115 213 1.0
e 115 252 17.0
e 116 185 1.0
e 117 181 1.0
e 117 301 2.0
e 119 300 2.0
e 120 75 2.0
e 120 180 1.0
e 122 1 4.0
e 122 189 1.0
e 127 191 1.0
e 128 235 28.0
e 128 65 49.0
e 128 303 95.0
e 128 10 33.0
e 128 74 86.0
e 128 39 81.0
e 128 276 63.0
e 128 27 75.0
e 128 282 95.0
e 128 306 37.0
e 128 304 63.0
e 128 193 15.0
e 128 78 65.0
e 128 194 49.0
e 128 123 9.0
e 128 31 67.0
e 128 250 52.0
e 128 209 8.0
e 128 59 72.0
e 128 97 40.0
e 128 283 29.0
e 128 182 89.0
e 128 311 96.0
e 128 166 99.0
e 128 96 22.0
e 128 25 95.0
e 128 156 60.0
e 128 41 71.0
e 128 154 62.0
e 128 203 39.0
e 128 187 42.0
e 128 274 51.0
e 128 72 29.0
e 128 256 96.0
e 128 259 59.0
e 128 155 83.0
e 129 0 3.0
e 129 31 13.0
e 129 34 1.0
e 129 78 6.0
e 129 123 20.0
e 129 182 12.0
e 129 90 8.0
e 129 102 7.0
e 130 82 7.0
e 130 72 8.0
e 130 29 10.0
e 131 155 72.0
e 131 263 5.0
e 131 292 12.0
e 132 262 8.0
e 132 24 5.0
e 132 214 2.0
e 133 186 16.0
e 133 167 7.0
e 133 60 16.0
e 133 172 23.0
e 133 183 1.0
e 133 162 1.0
e 133 82 7.0
e 133 148 6.0
e 133 40 9.0
e 134 217 1.0
e 134 179 3.0
e 136 247 3.0
e 136 79 12.0
e 136 253 1.0
e 137 249 22.0
e 138 259 36.0
e 138 185 8.0
e 138 134 8.0
e 138 170 44.0
e 138 74 1.0
e 138 247 49.0
e 138 175 67.0
e 138 225 84.0
e 138 214 58.0
e 138 285 51.0
e 138 180 80.0
e 138 309 11.0
e 138 119 71.0
e 138 148 27.0
e 138 196 37.0
e 138 135 74.0
e 138 164 52.0
e 138 205 90.0
e 138 34 45.0
e 138 4 53.0
e 138 208 21.0
e 138 230 70.0
e 138 147 32.0
e 138 20 74.0
e 138 308 12.0
e 138 49 84.0
e 138 42 51.0
e 138 155 93.0
e 138 142 67.0
e 138 173 19.0
e 138 16 12.0
e 138 133 83.0
e 138 151 61.0
e 138 33 4.0
e 138 284 93.0
e 138 192 52.0
e 138 36 53.0
e 139 306 1.0
e 139 136 10.0
e 140 278 78.0
e 140 308 23.0
e 140 128 25.0
e 140 204 22.0
e 140 12 4.0
e 140 114 65.0
e 140 16 1.0
e 140 249 36.0
e 140 58 2.0
e 140 14 25.0
e 140 127 44.0
e 140 66 39.0
e 140 7 48.0
e 140 211 31.0
e 140 188 13.0
e 140 305 46.0
e 140 306 17.0
e 140 160 10.0
e 140 288 19.0
e 141 29 1.0
e 142 6 10.0
e 142 272 9.0
e 142 197 8.0
e 144 225 3.0
e 145 262 3.0
e 146 254 2.0
e 149 156 2.0
e 149 288 12.0
e 152 292 82.0
e 152 244 37.0
e 152 162 80.0
e 152 253 62.0
e 152 256 50.0
e 152 180 33.0
e 152 241 1.0
e 152 264 98.0
e 152 271 68.0
e 152 111 88.0
e 152 73 33.0
e 152 66 24.0
e 152 313 61.0
e 152 29 26.0
e 152 302 80.0
e 152 36 76.0
e 152 137 88.0
e 152 230 63.0
e 152 281 63.0
e 152 6 30.0
e 152 98 61.0
e 152 79 51.0
e 152 225 23.0
e 152 251 43.0
e 152 117 21.0
e 152 53 8.0
e 152 113 40.0
e 152 142 21.0
e 152 103 92.0
e 152 131 4.0
e 152 228 45.0
e 152 61 4.0
e 152 245 12.0
e 152 37 90.0
e 152 260 28.0
e 154 251 6.0
e 154 45 1.0
e 155 209 34.0
e 155 307 41.0
e 155 8 78.0
e 155 132 44.0
e 155 41 35.0
e 155 250 71.0
e 155 156 58.0
e 155 244 65.0
e 155 94 25.0
e 155 15 76.0
e 155 164 49.0
e 155 114 84.0
e 155 35 89.0
e 155 123 98.0
e 155 21 59.0
e 155 301 34.0
e 155 274 36.0
e 155 280 18.0
e 155 147 85.0
e 155 316 76.0
e 155 245 31.0
e 155 312 12.0
e 155 260 68.0
e 155 258 52.0
e 155 202 52.0
e 155 130 12.0
e 155 61 27.0
e 155 228 51.0
e 155 65 78.0
e 155 143 44.0
e 155 5 33.0
e 155 235 28.0
e 155 159 32.0
e 155 34 69.0
e 158 186 2.0
e 159 172 21.0
e 159 64 5.0
e 160 289 4.0
e 160 194 2.0
e 160 124 1.0
e 161 89 1.0
e 163 194 1.0
e 163 110 3.0
e 165 107 4.0
e 165 168 6.0
e 165 270 7.0
e 165 263 1.0
e 167 118 6.0
e 169 235 49.0
e 169 121 35.0
e 169 9 98.0
e 169 208 24.0
e 169 213 76.0
e 169 115 62.0
e 169 230 92.0
e 169 79 69.0
e 169 154 73.0
e 169 80 83.0
e 169 143 35.0
e 169 126 61.0
e 169 217 69.0
e 169 116 45.0
e 169 34 28.0
e 169 148 38.0
e 169 226 96.0
e 169 85 86.0
e 169 284 43.0
e 169 222 30.0
e 169 200 28.0
e 169 12 44.0
e 169 227 16.0
e 169 254 66.0
e 169 10 81.0
e 169 179 53.0
e 169 88 79.0
e 169 206 41.0
e 169 78 10.0
e 169 33 76.0
e 169 192 51.0
e 169 61 6.0
e 169 260 46.0
e 169 189 80.0
e 169 249 15.0
e 169 132 72.0
e 170 294 1.0
e 171 10 2.0
e 172 86 5.0
e 172 158 15.0
e 172 241 12.0
e 172 127 21.0
e 172 110 15.0
e 172 244 1.0
e 173 135 1.0
e 174 79 14.0
e 174 22 17.0
e 174 280 18.0
e 174 227 2.0
e 174 25 21.0
e 174 23 19.0
e 174 213 15.0
e 174 136 13.0
e 174 62 8.0
e 176 166 1.0
e 176 195 1.0
e 178 36 5.0
e 178 151 7.0
e 178 131 6.0
e 178 43 10.0
e 184 86 97.0
e 184 310 12.0
e 184 185 14.0
e 184 78 34.0
e 184 239 3.0
e 184 203 63.0
e 184 43 6.0
e 184 81 93.0
e 184 150 61.0
e 184 115 85.0
e 184 63 18.0
e 184 82 56.0
e 184 89 32.0
e 184 133 80.0
e 184 65 10.0
e 184 120 2.0
e 184 214 36.0
e 184 193 1.0
e 184 210 39.0
e 184 147 11.0
e 184 264 48.0
e 184 39 3.0
e 184 172 6.0
e 184 151 86.0
e 184 111 37.0
e 184 170 20.0
e 184 57 75.0
e 184 318 24.0
e 184 235 20.0
e 184 149 12.0
e 184 200 67.0
e 184 274 77.0
e 184 217 47.0
e 184 244 1.0
e 184 105 55.0
e 186 91 1.0
e 186 12 2.0
e 187 34 12.0
e 187 155 78.0
e 188 172 15.0
e 190 98 2.0
e 190 292 6.0
e 196 93 1.0
e 198 47 1.0
e 198 169 30.0
e 199 195 1.0
e 199 6 2.0
e 201 221 24.0
e 201 105 5.0
e 204 300 7.0
e 204 286 9.0
e 204 110 26.0
e 204 50 90.0
e 204 98 3.0
e 204 306 29.0
e 204 119 29.0
e 204 279 11.0
e 204 251 91.0
e 204 124 46.0
e 204 73 58.0
e 204 231 47.0
e 204 60 50.0
e 204 157 74.0
e 204 150 38.0
e 204 85 45.0
e 204 265 38.0
e 204 47 41.0
e 204 107 56.0
e 204 164 48.0
e 204 24 23.0
e 204 230 63.0
e 204 291 76.0
e 204 242 4.0
e 204 274 16.0
e 204 9 82.0
e 204 34 90.0
e 204 134 40.0
e 204 166 27.0
e 204 302 49.0
e 204 168 55.0
e 204 153 70.0
e 204 108 12.0
e 204 189 29.0
e 204 95 75.0
e 205 161 3.0
e 206 236 1.0
e 209 134 53.0
e 209 164 36.0
e 209 297 63.0
e 209 307 21.0
e 209 7 18.0
e 209 284 13.0
e 209 193 5.0
e 209 158 58.0
e 209 140 63.0
e 209 61 86.0
e 209 229 9.0
e 209 239 100.0
e 209 286 70.0
e 209 202 17.0
e 209 28 18.0
e 209 135 47.0
e 209 267 13.0
e 209 189 100.0
e 209 236 70.0
e 209 183 53.0
e 209 295 11.0
e 209 298 34.0
e 209 153 68.0
e 209 38 69.0
e 209 126 60.0
e 209 159 85.0
e 209 308 24.0
e 209 273 100.0
e 209 6 74.0
e 209 274 19.0
e 209 17 71.0
e 209 175 58.0
e 209 313 20.0
e 209 303 16.0
e 209 139 62.0
e 210 267 2.0
e 215 99 1.0
e 215 247 3.0
e 215 200 1.0
e 218 43 1.0
e 218 174 25.0
e 218 257 1.0
e 219 37 53.0
e 220 192 5.0
e 220 305 4.0
e 221 78 6.0
e 221 168 41.0
e 221 162 27.0
e 221 183 7.0
e 221 39 23.0
e 221 34 14.0
e 221 11 28.0
e 221 15 30.0
e 221 76 39.0
e 221 64 46.0
e 221 185 49.0
e 221 63 42.0
e 221 169 63.0
e 221 92 24.0
e 221 202 35.0
e 221 286 9.0
e 221 248 27.0
e 224 233 1.0
e 231 85 10.0
e 231 49 10.0
e 231 2 10.0
e 231 305 9.0
e 233 250 1.0
e 234 61 2.0
e 234 23 7.0
e 234 84 1.0
e 237 270 1.0
e 238 189 2.0
e 238 297 12.0
e 238 192 12.0
e 240 42 18.0
e 240 18 29.0
e 240 285 97.0
e 240 273 1.0
e 240 263 58.0
e 240 157 100.0
e 240 301 35.0
e 240 10 64.0
e 240 104 9.0
e 240 202 49.0
e 240 254 43.0
e 240 239 47.0
e 240 214 18.0
e 240 25 10.0
e 240 147 70.0
e 240 166 11.0
e 240 141 18.0
e 240 293 54.0
e 240 53 23.0
e 240 16 26.0
e 240 255 52.0
e 240 123 72.0
e 240 115 48.0
e 240 175 12.0
e 240 9 59.0
e 240 182 71.0
e 240 92 9.0
e 240 289 5.0
e 240 17 85.0
e 240 11 16.0
e 240 201 99.0
e 240 243 18.0
e 240 19 59.0
e 240 80 16.0
e 240 272 77.0
e 241 242 4.0
e 242 85 2.0
e 244 223 1.0
e 244 306 32.0
e 244 136 42.0
e 244 202 35.0
e 244 47 39.0
e 244 316 6.0
e 244 278 76.0
e 244 233 9.0
e 244 271 39.0
e 244 227 28.0
e 244 65 8.0
e 244 208 18.0
e 246 175 1.0
e 249 128 97.0
e 249 296 30.0
e 249 79 14.0
e 249 261 10.0
e 249 236 16.0
e 251 92 9.0
e 251 181 16.0
e 251 24 21.0
e 251 135 2.0
e 251 33 10.0
e 255 230 42.0
e 255 79 60.0
e 255 200 17.0
e 255 31 30.0
e 255 189 87.0
e 255 226 25.0
e 255 212 14.0
e 255 190 24.0
e 255 259 36.0
e 255 118 12.0
e 255 103 19.0
e 255 237 93.0
e 255 224 59.0
e 255 50 81.0
e 255 111 21.0
e 255 263 19.0
e 255 1 44.0
e 255 285 79.0
e 255 304 71.0
e 255 198 68.0
e 255 0 17.0
e 255 115 6.0
e 255 113 3.0
e 255 317 17.0
e 255 17 8.0
e 255 14 59.0
e 255 18 86.0
e 255 122 35.0
e 255 286 99.0
e 255 123 64.0
e 255 271 28.0
e 255 104 6.0
e 255 39 77.0
e 255 4 100.0
e 258 182 1.0
e 259 284 5.0
e 260 243 26.0
e 260 317 14.0
e 260 95 10.0
e 260 250 6.0
e 260 21 21.0
e 260 194 21.0
e 260 67 24.0
e 260 51 31.0
e 260 25 20.0
e 260 200 11.0
e 260 137 1.0
e 260 48 38.0
e 260 49 13.0
e 260 135 4.0
e 260 70 19.0
e 265 212 26.0
e 265 112 62.0
e 265 316 27.0
e 265 1 12.0
e 265 169 18.0
e 265 92 96.0
e 265 48 14.0
e 265 266 10.0
e 265 314 39.0
e 265 96 65.0
e 265 19 5.0
e 265 279 73.0
e 265 62 20.0
e 265 21 1.0
e 265 313 26.0
e 265 160 6.0
e 265 293 58.0
e 265 306 1.0
e 265 73 42.0
e 265 140 98.0
e 265 47 22.0
e 265 84 26.0
e 265 131 84.0
e 265 262 87.0
e 265 258 29.0
e 265 64 27.0
e 265 317 97.0
e 265 82 43.0
e 265 267 96.0
e 265 148 100.0
e 265 88 20.0
e 265 250 19.0
e 265 159 65.0
e 268 11 1.0
e 268 93 9.0
e 268 144 9.0
e 275 80 1.0
e 275 303 5.0
e 275 246 1.0
e 277 212 1.0
e 278 170 24.0
e 278 19 55.0
e 278 191 57.0
e 278 298 58.0
e 278 6 79.0
e 278 235 34.0
e 278 219 12.0
e 278 137 32.0
e 278 39 56.0
e 278 185 14.0
e 278 316 32.0
e 278 69 34.0
e 278 71 92.0
e 278 46 70.0
e 278 192 90.0
e 278 117 31.0
e 278 20 1.0
e 278 279 86.0
e 278 237 54.0
e 278 220 3.0
e 278 305 38.0
e 278 92 80.0
e 278 184 28.0
e 278 98 44.0
e 278 23 95.0
e 278 240 11.0
e 278 253 9.0
e 278 193 38.0
e 278 17 6.0
e 278 13 64.0
e 278 115 28.0
e 278 231 37.0
e 278 52 57.0
e 282 168 17.0
e 282 104 24.0
e 282 42 23.0
e 282 237 13.0
e 282 200 22.0
e 282 63 18.0
e 282 242 9.0
e 282 257 16.0
e 283 92 1.0
e 287 141 9.0
e 287 138 44.0
e 287 281 5.0
e 287 71 3.0
e 288 298 10.0
e 288 183 8.0
e 292 50 4.0
e 292 207 5.0
e 294 14 2.0
e 296 205 23.0
e 296 28 47.0
e 296 149 42.0
e 296 176 34.0
e 296 64 32.0
e 296 147 27.0
e 296 150 97.0
e 296 209 34.0
e 296 297 68.0
e 296 193 10.0
e 296 8 36.0
e 296 283 3.0
e 296 190 30.0
e 296 316 60.0
e 296 15 31.0
e 296 289 41.0
e 296 38 93.0
e 296 151 67.0
e 296 42 23.0
e 296 312 17.0
e 296 37 47.0
e 296 63 14.0
e 296 219 33.0
e 296 293 41.0
e 296 65 54.0
e 296 318 32.0
e 296 213 22.0
e 296 157 3.0
e 296 185 4.0
e 296 294 15.0
e 296 69 8.0
e 296 177 66.0
e 296 210 63.0
e 296 146 81.0
e 296 313 73.0
e 296 274 32.0
e 299 189 1.0
e 299 231 2.0
e 299 49 4.0
e 299 91 10.0
e 299 72 11.0
e 303 276 32.0
e 303 13 2.0
e 303 244 41.0
e 303 38 16.0
e 303 136 25.0
e 303 267 9.0
e 303 80 47.0
e 303 88 1.0
e 303 273 42.0
e 303 277 41.0
e 303 245 12.0
e 303 255 22.0
e 303 41 17.0
e 303 180 9.0
e 303 15 8.0
e 303 125 28.0
e 307 220 6.0
e 307 176 12.0
e 307 179 4.0
e 311 200 5.0
e 315 264 17.0
e 315 23 39.0
e 315 304 80.0
e 315 200 80.0
e 315 77 97.0
e 315 87 9.0
e 315 155 30.0
e 315 30 74.0
e 315 289 53.0
e 315 267 30.0
e 315 142 70.0
e 315 252 58.0
e 315 43 51.0
e 315 57 30.0
e 315 134 95.0
e 315 201 91.0
e 315 18 70.0
e 315 3 75.0
e 315 133 75.0
e 315 93 49.0
e 315 106 68.0
e 315 202 69.0
e 315 192 24.0
e 315 58 24.0
e 315 136 72.0
e 315 82 24.0
e 315 308 51.0
e 315 68 40.0
e 315 190 27.0
e 315 5 100.0
e 315 29 15.0
e 315 265 7.0
e 315 262 46.0
e 315 62 1.0
e 315 105 8.0
e 315 52 39.0
e 318 200 7.0
e 319 261 23.0
e 319 126 21.0
e 319 188 5.0
e 319 85 7.0
e 319 291 22.0
e 319 12 5.0
e 319 190 7.0
e 319 133 9.0
e 319 160 21.0
e 319 55 13.0
